NAME : RD99C.9185.tour
COMMENT : Cost = 0_9185
COMMENT : Found by LKH [Keld Helsgaun] Sun Sep 17 16:52:42 2017
TYPE : TOUR
DIMENSION : 99
TOUR_SECTION
1
18
15
62
96
85
48
21
14
84
4
32
77
73
91
72
49
45
55
6
78
3
13
66
68
8
70
67
82
50
89
64
47
30
79
90
63
56
46
98
52
93
97
31
83
87
57
88
2
23
35
29
43
99
38
95
54
39
42
25
24
41
7
34
40
22
80
5
60
11
51
44
16
65
75
58
94
76
92
28
36
19
53
37
69
71
17
27
10
33
20
26
9
12
81
74
86
61
59
-1
EOF
